RT is False
Default write of storage_offers_DA.csv just to have a file (but constraint should be inactive)
Reading model...
...model read.
creating competitive generators file...
...competitive generators recorded.
Loading data...
.. day-ahead data read.
Compiling instance...
...instance created.
Creating Offer Mitigation (model will solve as dispatch if TRUE)...
NOTE: storage offers will not be mitigated
...storage offer mitigation file created
Solving...

Welcome to IBM(R) ILOG(R) CPLEX(R) Interactive Optimizer 12.10.0.0
  with Simplex, Mixed Integer & Barrier Optimizers
5725-A06 5725-A29 5724-Y48 5724-Y49 5724-Y54 5724-Y55 5655-Y21
Copyright IBM Corp. 1988, 2019.  All Rights Reserved.

Type 'help' for a list of available commands.
Type 'help' followed by a command name for more
information on commands.

CPLEX> Logfile 'cplex.log' closed.
Logfile 'C:\Users\wenmi\Desktop\competitiveMPEC\logs\tmpfv8r5nmo.cplex.log' open.
CPLEX> New value for parallel optimization mode: -1
CPLEX> New value for mixed integer optimality gap tolerance: 0.001
CPLEX> New value for deterministic time limit in ticks: 100000
CPLEX> Problem 'C:\Users\wenmi\Desktop\competitiveMPEC\logs\tmpdbodqu1u.pyomo.lp' read.
Read time = 0.03 sec. (2.94 ticks)
CPLEX> Problem name         : C:\Users\wenmi\Desktop\competitiveMPEC\logs\tmpdbodqu1u.pyomo.lp
Objective sense      : Minimize
Variables            :   26077  [Nneg: 1,  Box: 21612,  Free: 4464]
Objective nonzeros   :    2496
Linear constraints   :   27515  [Less: 14006,  Greater: 4416,  Equal: 9093]
  Nonzeros           :   86773
  RHS nonzeros       :   12236

Variables            : Min LB: -5000.000        Max UB: 1000000.       
Objective nonzeros   : Min   : 15.73158         Max   : 124.0997       
Linear constraints   :
  Nonzeros           : Min   : 0.8500000        Max   : 3000.000       
  RHS nonzeros       : Min   : 0.1000000        Max   : 5000.000       
CPLEX> Version identifier: 12.10.0.0 | 2019-11-26 | 843d4de2ae
CPXPARAM_Parallel                                -1
CPXPARAM_DetTimeLimit                            100000
CPXPARAM_MIP_Tolerances_MIPGap                   0.001
Parallel mode: opportunistic, using up to 16 threads for concurrent optimization:
 * Starting dual Simplex on 1 thread...
 * Starting Barrier on 14 threads...
 * Starting primal Simplex on 1 thread...
Tried aggregator 1 time.
LP Presolve eliminated 21379 rows and 15520 columns.
Aggregator did 776 substitutions.
Reduced LP has 5360 rows, 9781 columns, and 30414 nonzeros.
Presolve time = 0.03 sec. (29.13 ticks)
Symmetry aggregator did 5561 additional substitutions.
Initializing dual steep norms . . .

Iteration log . . .
Iteration:     1   Dual objective     =             0.000000
Perturbation started.
Iteration:   101   Dual objective     =             0.000000
Iteration:   343   Dual objective     =            50.719852
Iteration:   579   Dual objective     =            64.212529
Iteration:   791   Dual objective     =            64.826370
Iteration:   971   Dual objective     =        133884.575231
Iteration:  1139   Dual objective     =        177218.321452
Iteration:  1395   Dual objective     =        177304.790648
Removing perturbation.

Dual crossover.
  Dual:  Fixing 1 variable.
        0 DMoves:  Infeasibility  1.06581410e-14  Objective  1.77239922e+05
  Dual:  Pushed 0, exchanged 1.
  Primal:  Fixing 3 variables.
        2 PMoves:  Infeasibility  1.55705493e-09  Objective  1.77239922e+05
        0 PMoves:  Infeasibility  1.55705493e-09  Objective  1.77239922e+05
  Primal:  Pushed 3, exchanged 0.

Dual simplex solved model.


Dual simplex - Optimal:  Objective =  1.7723992182e+05
Solution time =    0.09 sec.  Iterations = 1421 (0)
Deterministic time = 74.99 ticks  (797.75 ticks/sec)

CPLEX> Solution written to file 'C:\Users\wenmi\Desktop\competitiveMPEC\logs\tmpy3gr1u96.cplex.sol'.
CPLEX> Exporting results... 
